NAME: n500q40D.tsp, 500 nodes, semilla 333
COMMENT: Problema aleatorio de norma euclidea
DIMENSION: 500
CAPACITY: 40
EDGE_WEIGHT_TYPE: EUC_2D
NODE_COORD_SECTION
1   0.0000   0.0000
2 -273.0000 -373.0000
3 -371.0000 -268.0000
4 179.0000 469.0000
5 276.0000 -496.0000
6 422.0000 287.0000
7 -499.0000 -363.0000
8 -316.0000  89.0000
9 -162.0000 460.0000
10   1.0000 -59.0000
11 344.0000 303.0000
12 200.0000 -248.0000
13 -28.0000 -410.0000
14 382.0000  85.0000
15 -112.0000 472.0000
16 262.0000 315.0000
17 274.0000 221.0000
18 101.0000  87.0000
19 -307.0000 284.0000
20 209.0000 -451.0000
21 482.0000 441.0000
22 -130.0000  11.0000
23 -336.0000 386.0000
24  97.0000 -186.0000
25 415.0000 209.0000
26 -479.0000 370.0000
27 -95.0000 132.0000
28 242.0000 444.0000
29 -126.0000 -196.0000
30  75.0000 -326.0000
31 194.0000 123.0000
32 -301.0000 -395.0000
33 -440.0000 -479.0000
34 -272.0000 -387.0000
35 489.0000  56.0000
36  88.0000 182.0000
37 -231.0000 311.0000
38 331.0000 -437.0000
39 -94.0000 228.0000
40 336.0000 296.0000
41 -421.0000 -186.0000
42 -192.0000 492.0000
43 410.0000 -423.0000
44 464.0000 302.0000
45  53.0000 -493.0000
46 363.0000 286.0000
47 149.0000 375.0000
48 -321.0000 -352.0000
49 461.0000   8.0000
50 478.0000 157.0000
51 -126.0000 -72.0000
52 -40.0000 -77.0000
53 -253.0000 -55.0000
54 -305.0000 -10.0000
55 -470.0000 460.0000
56  43.0000 -26.0000
57  27.0000  80.0000
58 495.0000 -429.0000
59  36.0000 310.0000
60 124.0000 382.0000
61 326.0000 -485.0000
62 -28.0000 130.0000
63 -468.0000 -299.0000
64 106.0000 235.0000
65 337.0000 161.0000
66 -328.0000 -402.0000
67 415.0000 -404.0000
68  33.0000 329.0000
69 437.0000 -160.0000
70 296.0000 -36.0000
71 -447.0000 -38.0000
72 -80.0000 -168.0000
73 246.0000 -142.0000
74 358.0000 -433.0000
75 -329.0000 -413.0000
76 380.0000 285.0000
77 301.0000 -157.0000
78 -152.0000 -355.0000
79 -475.0000 -75.0000
80  20.0000 -225.0000
81 -194.0000 125.0000
82 -386.0000 208.0000
83 -215.0000 -357.0000
84 -117.0000 274.0000
85 -270.0000 301.0000
86 456.0000 -378.0000
87 326.0000 270.0000
88 -495.0000 -297.0000
89 -483.0000 -341.0000
90 -306.0000 137.0000
91  74.0000 -449.0000
92 226.0000 154.0000
93 -159.0000  13.0000
94 -83.0000 431.0000
95 -280.0000 -10.0000
96 221.0000 -246.0000
97 273.0000 -380.0000
98 289.0000 259.0000
99 -169.0000 -225.0000
100 -154.0000 -59.0000
101  -1.0000 -403.0000
102 173.0000  27.0000
103 378.0000 271.0000
104 -67.0000 -342.0000
105 -392.0000 -430.0000
106 -291.0000  96.0000
107 -122.0000 -301.0000
108 413.0000 213.0000
109 -166.0000 -185.0000
110 -211.0000 -287.0000
111 -417.0000 -270.0000
112 -355.0000 366.0000
113 173.0000  30.0000
114 -105.0000 -120.0000
115 -494.0000 -418.0000
116 466.0000 -406.0000
117 -353.0000 -29.0000
118 433.0000 403.0000
119 412.0000 207.0000
120 -60.0000 -383.0000
121 -386.0000 344.0000
122 -172.0000 188.0000
123 426.0000 183.0000
124 132.0000 462.0000
125 426.0000 474.0000
126 -177.0000 482.0000
127 -249.0000  95.0000
128 293.0000 -277.0000
129 191.0000 -222.0000
130 -150.0000 430.0000
131 474.0000 -295.0000
132 -256.0000 -262.0000
133 328.0000 -66.0000
134 435.0000 -330.0000
135 237.0000 204.0000
136 -211.0000 277.0000
137 351.0000 309.0000
138 228.0000  86.0000
139 399.0000 -493.0000
140 105.0000 214.0000
141 318.0000 254.0000
142 -477.0000 354.0000
143 -29.0000 -146.0000
144 -469.0000 175.0000
145  42.0000  26.0000
146 -216.0000 429.0000
147 -498.0000 -256.0000
148 118.0000 -276.0000
149 258.0000 -267.0000
150  59.0000 445.0000
151 301.0000 -257.0000
152 -118.0000 180.0000
153 428.0000 225.0000
154  -4.0000 157.0000
155 -347.0000  -9.0000
156 -117.0000 -371.0000
157 473.0000 155.0000
158 -320.0000 409.0000
159 -304.0000 -33.0000
160 256.0000 -379.0000
161 -236.0000 436.0000
162 -453.0000 -210.0000
163 -233.0000 -422.0000
164 -210.0000 -16.0000
165 142.0000 121.0000
166 -63.0000 -32.0000
167 -469.0000 192.0000
168 218.0000 -119.0000
169 477.0000 -412.0000
170 203.0000 -303.0000
171 219.0000 379.0000
172 -382.0000 105.0000
173 -127.0000 -88.0000
174   0.0000 352.0000
175 489.0000 442.0000
176 -499.0000 -198.0000
177 -419.0000 105.0000
178 -334.0000 192.0000
179 -148.0000 -487.0000
180  94.0000 191.0000
181 244.0000 -182.0000
182 381.0000 -291.0000
183 -113.0000 -498.0000
184 -443.0000   9.0000
185 153.0000 -299.0000
186 -93.0000 -69.0000
187 465.0000 -466.0000
188  62.0000 -108.0000
189 -242.0000  -1.0000
190 402.0000 -113.0000
191 316.0000 -290.0000
192 129.0000   7.0000
193  46.0000 -295.0000
194 188.0000 171.0000
195 -18.0000 203.0000
196 200.0000 -368.0000
197 -453.0000  48.0000
198 -81.0000  70.0000
199 347.0000  51.0000
200 331.0000 -258.0000
201 137.0000 -235.0000
202 307.0000 474.0000
203 -296.0000 -95.0000
204 263.0000  13.0000
205 161.0000 -378.0000
206  22.0000 340.0000
207 -215.0000  21.0000
208  67.0000 -467.0000
209 -497.0000 339.0000
210 307.0000 -41.0000
211  20.0000 -343.0000
212 -430.0000 -397.0000
213 132.0000 -230.0000
214 295.0000 -158.0000
215 -316.0000 261.0000
216 269.0000 -433.0000
217 -99.0000 324.0000
218 -109.0000 -58.0000
219 120.0000 -172.0000
220 406.0000 -428.0000
221 138.0000 262.0000
222 213.0000 -495.0000
223 -319.0000  45.0000
224 -155.0000  60.0000
225  15.0000 385.0000
226 198.0000 485.0000
227 239.0000 -461.0000
228  38.0000 481.0000
229 -202.0000 218.0000
230 469.0000 -487.0000
231 -379.0000 213.0000
232 -71.0000 284.0000
233 404.0000 -414.0000
234 291.0000 -425.0000
235 -160.0000  -9.0000
236 -31.0000 450.0000
237 -232.0000 367.0000
238 -459.0000 333.0000
239 428.0000 -497.0000
240  54.0000 -494.0000
241 439.0000 185.0000
242 -211.0000 -395.0000
243  87.0000 328.0000
244  35.0000 -47.0000
245 138.0000  54.0000
246 -151.0000  36.0000
247  52.0000 107.0000
248 -296.0000 238.0000
249 -370.0000  31.0000
250 -341.0000 310.0000
251  97.0000 201.0000
252  33.0000 374.0000
253 155.0000 -112.0000
254 -209.0000 472.0000
255 -447.0000 -461.0000
256 -347.0000 -127.0000
257 190.0000 356.0000
258 -80.0000 -435.0000
259 115.0000 162.0000
260  57.0000 483.0000
261   0.0000 -17.0000
262  59.0000 -246.0000
263 209.0000 495.0000
264 -414.0000 -452.0000
265 124.0000 -358.0000
266 -173.0000  10.0000
267 -238.0000 -76.0000
268 -490.0000 -151.0000
269 429.0000 -253.0000
270 -341.0000 -269.0000
271 -471.0000 -352.0000
272 436.0000 472.0000
273 405.0000 482.0000
274 -353.0000 -153.0000
275 -484.0000 -473.0000
276 -336.0000 -152.0000
277  23.0000 213.0000
278 -292.0000 -292.0000
279 -499.0000 -184.0000
280 168.0000 -281.0000
281 -314.0000 372.0000
282  75.0000 236.0000
283 -348.0000 -330.0000
284 -319.0000 -79.0000
285 203.0000 134.0000
286 362.0000 -387.0000
287 235.0000 448.0000
288 258.0000 392.0000
289 -220.0000 -117.0000
290 242.0000  90.0000
291 193.0000  32.0000
292 -216.0000 -329.0000
293 -129.0000 383.0000
294  82.0000 328.0000
295 -488.0000 327.0000
296 104.0000 -43.0000
297 139.0000 445.0000
298 -333.0000 -294.0000
299 455.0000 376.0000
300 352.0000 -48.0000
301 424.0000 -22.0000
302 -206.0000 -218.0000
303 424.0000 137.0000
304 -193.0000 -200.0000
305 266.0000 -82.0000
306 -39.0000 -138.0000
307 155.0000 -363.0000
308 177.0000  48.0000
309 234.0000 -57.0000
310 -313.0000  48.0000
311 -71.0000 477.0000
312 116.0000 -144.0000
313 -204.0000 285.0000
314  83.0000 -161.0000
315 498.0000 -438.0000
316 -299.0000 382.0000
317 290.0000 175.0000
318  69.0000 135.0000
319 256.0000 -428.0000
320 139.0000 176.0000
321 -161.0000 148.0000
322 -491.0000 -108.0000
323  49.0000 -42.0000
324 203.0000 227.0000
325 285.0000 -461.0000
326 241.0000 156.0000
327 -383.0000 -473.0000
328 -174.0000 -216.0000
329 296.0000 -412.0000
330 483.0000 208.0000
331 -483.0000 -365.0000
332 271.0000 193.0000
333 489.0000 -340.0000
334 281.0000 -345.0000
335 -238.0000 -271.0000
336 142.0000 -224.0000
337 268.0000 101.0000
338 268.0000 -397.0000
339 -300.0000 426.0000
340 -482.0000 -71.0000
341 -469.0000 324.0000
342 -318.0000 170.0000
343  79.0000 -368.0000
344 -380.0000 -349.0000
345 -464.0000 -446.0000
346 -220.0000 319.0000
347 426.0000 357.0000
348 365.0000 379.0000
349  38.0000 -197.0000
350 440.0000 -138.0000
351 -82.0000 167.0000
352   1.0000 -63.0000
353 -191.0000 113.0000
354 375.0000 -116.0000
355 -197.0000 -101.0000
356 146.0000 -47.0000
357 -39.0000 186.0000
358 160.0000 -460.0000
359 228.0000 -473.0000
360  17.0000 451.0000
361 -332.0000 350.0000
362 -204.0000 139.0000
363 470.0000 374.0000
364 425.0000 315.0000
365 209.0000  10.0000
366 304.0000 365.0000
367 -427.0000 336.0000
368  34.0000 -230.0000
369  45.0000 488.0000
370 -353.0000 477.0000
371 231.0000  47.0000
372 175.0000 -53.0000
373 362.0000 285.0000
374 -259.0000 338.0000
375 -153.0000 371.0000
376 -399.0000 -281.0000
377 -365.0000 113.0000
378 109.0000 -204.0000
379 -388.0000 -313.0000
380 490.0000 -150.0000
381  -7.0000 426.0000
382 -149.0000 235.0000
383 -17.0000  34.0000
384 -374.0000 236.0000
385 -487.0000 -270.0000
386 -350.0000 128.0000
387 496.0000 431.0000
388  62.0000 -200.0000
389 -228.0000 -252.0000
390 -456.0000 -366.0000
391 -103.0000 141.0000
392 -444.0000 -232.0000
393 406.0000 -445.0000
394 -491.0000 -189.0000
395 -86.0000 -352.0000
396 -336.0000 215.0000
397 247.0000 395.0000
398 -32.0000 -224.0000
399 275.0000 -282.0000
400 226.0000 301.0000
401  77.0000 150.0000
402 -366.0000 -259.0000
403 -19.0000 499.0000
404 -443.0000  15.0000
405  23.0000 -327.0000
406 297.0000 -106.0000
407 -22.0000 -299.0000
408 -103.0000 -11.0000
409 436.0000 284.0000
410 -298.0000 -297.0000
411 -384.0000 265.0000
412 347.0000 -350.0000
413 -222.0000  69.0000
414  63.0000 381.0000
415 -478.0000 -340.0000
416 -352.0000  15.0000
417 -144.0000 493.0000
418 294.0000 -158.0000
419 247.0000 -486.0000
420 -451.0000 -431.0000
421 204.0000 426.0000
422 248.0000 -491.0000
423 329.0000  35.0000
424 -294.0000 -378.0000
425 277.0000 -53.0000
426 142.0000 384.0000
427 -169.0000 129.0000
428 -389.0000 -292.0000
429 -45.0000  32.0000
430 456.0000 -327.0000
431 -332.0000 -444.0000
432 -226.0000 -262.0000
433  -6.0000 -457.0000
434  77.0000 -271.0000
435 261.0000 398.0000
436 -313.0000 -412.0000
437 427.0000 -352.0000
438 -139.0000 336.0000
439 367.0000 479.0000
440 430.0000 -389.0000
441 -333.0000 -302.0000
442 -265.0000 -73.0000
443 -385.0000 -47.0000
444 288.0000 483.0000
445 170.0000 -93.0000
446 451.0000 204.0000
447 295.0000 149.0000
448 -382.0000 -396.0000
449 428.0000  52.0000
450 345.0000 321.0000
451 -136.0000 -43.0000
452 290.0000 442.0000
453 -405.0000 -358.0000
454 280.0000  86.0000
455 -157.0000  24.0000
456 -418.0000  53.0000
457 436.0000 423.0000
458 368.0000 -134.0000
459 359.0000 338.0000
460 346.0000 154.0000
461 302.0000 -481.0000
462 336.0000 454.0000
463 398.0000 -392.0000
464 190.0000 -401.0000
465 -186.0000 -492.0000
466 -23.0000 235.0000
467 303.0000  48.0000
468 437.0000 -190.0000
469 -131.0000 290.0000
470 -135.0000 239.0000
471 -242.0000 479.0000
472 272.0000  51.0000
473 -96.0000 211.0000
474  73.0000 -100.0000
475 167.0000 233.0000
476  49.0000 438.0000
477  23.0000 -36.0000
478 311.0000  64.0000
479 375.0000 454.0000
480 -64.0000 -285.0000
481 -97.0000 -330.0000
482  -3.0000  14.0000
483 467.0000 -281.0000
484 114.0000 221.0000
485 201.0000 -98.0000
486 -272.0000 -333.0000
487 143.0000 308.0000
488 445.0000 254.0000
489 416.0000 190.0000
490 -62.0000 418.0000
491 481.0000 -287.0000
492 -203.0000 -399.0000
493 334.0000  74.0000
494 -440.0000 369.0000
495 267.0000 -211.0000
496  66.0000  22.0000
497 400.0000 267.0000
498 -51.0000 130.0000
499 420.0000  66.0000
500 -400.0000 -326.0000
DISPLAY_DATA_SECTION:
 1  250  250
 2  113   63
 3   64  116
 4  339  484
 5  388    2
 6  461  393
 7    0   68
 8   92  294
 9  169  480
10  250  220
11  422  401
12  350  126
13  236   45
14  441  292
15  194  486
16  381  407
17  387  360
18  300  293
19   96  392
20  354   24
21  491  470
22  185  255
23   82  443
24  298  157
25  457  354
26   10  435
27  202  316
28  371  472
29  187  152
30  287   87
31  347  311
32   99   52
33   30   10
34  114   56
35  494  278
36  294  341
37  134  405
38  415   31
39  203  364
40  418  398
41   39  157
42  154  496
43  455   38
44  482  401
45  276    3
46  431  393
47  324  437
48   89   74
49  480  254
50  489  328
51  187  214
52  230  211
53  123  222
54   97  245
55   15  480
56  271  237
57  263  290
58  497   35
59  268  405
60  312  441
61  413    7
62  236  315
63   16  100
64  303  367
65  418  330
66   86   49
67  457   48
68  266  414
69  468  170
70  398  232
71   26  231
72  210  166
73  373  179
74  429   33
75   85   43
76  440  392
77  400  171
78  174   72
79   12  212
80  260  137
81  153  312
82   57  354
83  142   71
84  191  387
85  115  400
86  478   61
87  413  385
88    2  101
89    8   79
90   97  318
91  287   25
92  363  327
93  170  256
94  208  465
95  110  245
96  360  127
97  386   60
98  394  379
99  165  137
100  173  220
101  249   48
102  336  263
103  439  385
104  216   79
105   54   35
106  104  298
107  189   99
108  456  356
109  167  157
110  144  106
111   41  115
112   72  433
113  336  265
114  197  190
115    3   41
116  483   47
117   73  235
118  466  451
119  456  353
120  220   58
121   57  422
122  164  344
123  463  341
124  316  481
125  463  487
126  161  491
127  125  297
128  396  111
129  345  139
130  175  465
131  487  102
132  122  119
133  414  217
134  467   85
135  368  352
136  144  388
137  425  404
138  364  293
139  449    3
140  302  357
141  409  377
142   11  427
143  235  177
144   15  337
145  271  263
146  142  464
147    1  122
148  309  112
149  379  116
150  279  472
151  400  121
152  191  340
153  464  362
154  248  328
155   76  245
156  191   64
157  486  327
158   90  454
159   98  233
160  378   60
161  132  468
162   23  145
163  133   39
164  145  242
165  321  310
166  218  234
167   15  346
168  359  190
169  488   44
170  351   98
171  359  439
172   59  302
173  186  206
174  250  426
175  494  471
176    0  151
177   40  302
178   83  346
179  176    6
180  297  345
181  372  159
182  440  104
183  193    1
184   28  254
185  326  100
186  203  215
187  482   17
188  281  196
189  129  249
190  451  193
191  408  105
192  314  253
193  273  102
194  344  335
195  241  351
196  350   66
197   23  274
198  209  285
199  423  275
200  415  121
201  318  132
202  403  487
203  102  202
204  381  256
205  330   61
206  261  420
207  142  260
208  283   16
209    1  419
210  403  229
211  260   78
212   35   51
213  316  135
214  397  171
215   92  380
216  384   33
217  200  412
218  195  221
219  310  164
220  453   36
221  319  381
222  356    2
223   90  272
224  172  280
225  257  442
226  349  492
227  369   19
228  269  490
229  149  359
230  484    6
231   60  356
232  214  392
233  452   43
234  395   37
235  170  245
236  234  475
237  134  433
238   20  416
239  464    1
240  277    3
241  469  342
242  144   52
243  293  414
244  267  226
245  319  277
246  174  268
247  276  303
248  102  369
249   65  265
250   79  405
251  298  350
252  266  437
253  327  194
254  145  486
255   26   19
256   76  186
257  345  428
258  210   32
259  307  331
260  278  491
261  250  241
262  279  127
263  354  497
264   43   24
265  312   71
266  163  255
267  131  212
268    5  174
269  464  123
270   79  115
271   14   74
272  468  486
273  452  491
274   73  173
275    8   13
276   82  174
277  261  356
278  104  104
279    0  158
280  334  109
281   93  436
282  287  368
283   76   85
284   90  210
285  351  317
286  431   56
287  367  474
288  379  446
289  140  191
290  371  295
291  346  266
292  142   85
293  185  441
294  291  414
295    6  413
296  302  228
297  319  472
298   83  103
299  477  438
300  426  226
301  462  239
302  147  141
303  462  318
304  153  150
305  383  209
306  230  181
307  327   68
308  338  274
309  367  221
310   93  274
311  214  488
312  308  178
313  148  392
314  291  169
315  499   31
316  100  441
317  395  337
318  284  317
319  378   36
320  319  338
321  169  324
322    4  196
323  274  229
324  351  363
325  392   19
326  370  328
327   58   13
328  163  142
329  398   44
330  491  354
331    8   67
332  385  346
333  494   80
334  390   77
335  131  114
336  321  138
337  384  300
338  384   51
339  100  463
340    9  214
341   15  412
342   91  335
343  289   66
344   60   75
345   18   27
346  140  409
347  463  428
348  432  439
349  269  151
350  470  181
351  209  333
352  250  218
353  154  306
354  437  192
355  151  199
356  323  226
357  230  343
358  330   20
359  364   13
360  258  475
361   84  425
362  148  319
363  485  437
364  462  407
365  354  255
366  402  432
367   36  418
368  267  135
369  272  494
370   73  488
371  365  273
372  337  223
373  431  392
374  120  419
375  173  435
376   50  109
377   67  306
378  304  148
379   56   93
380  495  175
381  246  463
382  175  367
383  241  267
384   63  368
385    6  115
386   75  314
387  498  465
388  281  150
389  136  124
390   22   67
391  198  320
392   28  134
393  453   27
394    4  155
395  207   74
396   82  357
397  373  447
398  234  138
399  387  109
400  363  400
401  288  325
402   67  120
403  240  499
404   28  257
405  261   86
406  398  197
407  239  100
408  198  244
409  468  392
410  101  101
411   58  382
412  423   75
413  139  284
414  281  440
415   11   80
416   74  257
417  178  496
418  397  171
419  373    7
420   24   34
421  352  463
422  374    4
423  414  267
424  103   61
425  388  223
426  321  442
427  165  314
428   55  104
429  227  266
430  478   86
431   84   28
432  137  119
433  247   21
434  288  114
435  380  449
436   93   44
437  463   74
438  180  418
439  433  489
440  465   55
441   83   99
442  117  213
443   57  226
444  394  491
445  335  203
446  475  352
447  397  324
448   59   52
449  464  276
450  422  410
451  182  228
452  395  471
453   47   71
454  390  293
455  171  262
456   41  276
457  468  461
458  434  183
459  429  419
460  423  327
461  401    9
462  418  477
463  449   54
464  345   49
465  157    4
466  238  367
467  401  274
468  468  155
469  184  395
470  182  369
471  129  489
472  386  275
473  202  355
474  286  200
475  333  366
476  274  469
477  261  232
478  405  282
479  437  477
480  218  107
481  201   85
482  248  257
483  483  109
484  307  360
485  350  201
486  114   83
487  321  404
488  472  377
489  458  345
490  219  459
491  490  106
492  148   50
493  417  287
494   30  434
495  383  144
496  283  261
497  450  383
498  224  315
499  460  283
500   50   87
DEMAND_SECTION
1 -1
2 -3
3 -3
4 0
5 -8
6 -6
7 0
8 8
9 2
10 -9
11 -6
12 1
13 -5
14 -2
15 -10
16 8
17 1
18 2
19 1
20 -4
21 -9
22 -1
23 2
24 7
25 2
26 -4
27 -1
28 2
29 9
30 4
31 -5
32 8
33 1
34 -1
35 7
36 4
37 0
38 1
39 -9
40 0
41 6
42 -4
43 -7
44 1
45 3
46 9
47 8
48 -9
49 3
50 4
51 -4
52 6
53 0
54 -8
55 -3
56 0
57 -9
58 1
59 10
60 -3
61 7
62 -8
63 -5
64 5
65 -9
66 4
67 0
68 1
69 0
70 -1
71 -1
72 -8
73 7
74 -3
75 4
76 8
77 8
78 0
79 -3
80 1
81 6
82 -5
83 5
84 4
85 -3
86 1
87 -9
88 -6
89 0
90 -6
91 -2
92 -10
93 0
94 -7
95 -6
96 0
97 9
98 -5
99 -8
100 4
101 0
102 -3
103 -5
104 -3
105 2
106 -6
107 7
108 -4
109 1
110 10
111 9
112 10
113 -1
114 -3
115 1
116 0
117 9
118 -9
119 4
120 10
121 -6
122 5
123 3
124 -5
125 4
126 -2
127 4
128 9
129 -4
130 -6
131 -10
132 -6
133 -8
134 3
135 0
136 5
137 -4
138 6
139 0
140 -2
141 2
142 0
143 5
144 1
145 3
146 -3
147 -5
148 -6
149 3
150 0
151 4
152 -5
153 6
154 3
155 -8
156 5
157 -7
158 -6
159 -10
160 3
161 6
162 0
163 5
164 2
165 -8
166 1
167 0
168 -3
169 -5
170 -2
171 3
172 0
173 6
174 4
175 -4
176 -8
177 5
178 10
179 5
180 -5
181 -9
182 5
183 -7
184 7
185 -7
186 -9
187 9
188 9
189 0
190 -4
191 1
192 2
193 -4
194 -9
195 -1
196 1
197 10
198 0
199 -8
200 9
201 5
202 -5
203 -8
204 6
205 6
206 -5
207 8
208 -1
209 -2
210 -6
211 -2
212 -7
213 0
214 -8
215 7
216 5
217 -4
218 -4
219 -7
220 5
221 0
222 -8
223 -10
224 5
225 -3
226 7
227 0
228 4
229 7
230 0
231 1
232 -7
233 -7
234 3
235 -9
236 -4
237 -6
238 9
239 1
240 -6
241 1
242 -7
243 -6
244 -2
245 -10
246 -5
247 -4
248 6
249 0
250 -8
251 0
252 1
253 0
254 2
255 -4
256 8
257 1
258 -3
259 -7
260 5
261 0
262 -2
263 7
264 -9
265 6
266 7
267 6
268 9
269 -8
270 -10
271 -10
272 -6
273 -7
274 -1
275 -3
276 4
277 -1
278 1
279 1
280 9
281 -2
282 5
283 2
284 -9
285 4
286 10
287 -9
288 0
289 7
290 5
291 9
292 7
293 6
294 0
295 0
296 -7
297 -7
298 8
299 -6
300 8
301 3
302 -5
303 -3
304 2
305 1
306 -5
307 5
308 4
309 4
310 9
311 -2
312 -9
313 3
314 -2
315 0
316 -5
317 1
318 -1
319 9
320 -1
321 7
322 9
323 1
324 -2
325 2
326 -7
327 2
328 0
329 -7
330 -7
331 8
332 4
333 -9
334 -8
335 2
336 8
337 2
338 4
339 -9
340 0
341 -4
342 -2
343 -10
344 -2
345 4
346 -2
347 -2
348 3
349 0
350 -6
351 4
352 9
353 3
354 -2
355 1
356 1
357 7
358 2
359 3
360 9
361 -1
362 -4
363 5
364 0
365 -7
366 -3
367 5
368 -6
369 7
370 -4
371 -1
372 0
373 -6
374 -10
375 4
376 8
377 0
378 9
379 -5
380 1
381 0
382 -8
383 9
384 -2
385 -1
386 -3
387 -8
388 6
389 -6
390 -10
391 5
392 -1
393 -6
394 9
395 8
396 9
397 2
398 7
399 3
400 8
401 0
402 0
403 1
404 7
405 -6
406 3
407 -8
408 7
409 -9
410 -4
411 -9
412 0
413 7
414 -8
415 -4
416 2
417 10
418 3
419 1
420 6
421 10
422 7
423 -2
424 9
425 0
426 2
427 -3
428 -9
429 8
430 2
431 -2
432 -6
433 6
434 -3
435 -9
436 5
437 -4
438 4
439 0
440 -5
441 6
442 9
443 -2
444 5
445 9
446 -5
447 -9
448 -4
449 4
450 7
451 9
452 8
453 6
454 5
455 -7
456 -8
457 -2
458 -5
459 -7
460 -4
461 0
462 -3
463 8
464 -9
465 -2
466 -1
467 7
468 -4
469 -6
470 7
471 9
472 -4
473 6
474 3
475 -8
476 1
477 -8
478 8
479 0
480 2
481 10
482 3
483 0
484 -3
485 4
486 9
487 3
488 0
489 6
490 9
491 -2
492 -6
493 -10
494 3
495 4
496 7
497 5
498 -9
499 -10
500 -5
EOF